D = 3;
T = 9;
N = 2;

MinDT=1;
MaxDT=3;
MaxDL=3;

incompatibles=[{6,2,4},{1,3,4},{7,2},{5,6,1,2},{4,9},{1,4},{3,8},{9,7},{5,8}];
esSupervisor=[true,true,false,false,false,true,false,true,false];

diasPedidos=array2d(1..9, 1..3, [false,true,false,  false,true,false, false,false,true,  false,false,true,  false,false,false,
true,false,false,  false,true,false,  false,true,false,  false,false,true]);

turnosPedidos=array2d(1..9, 1..3, [turno1, turno2,turno3,  turno2,turno2,turno2,   turno2,turno2,turno2,  turno1,turno2,turno2,  turno2,turno2,turno2,
turno1,turno2,turno2,  turno2,turno2,turno2,  turno3,turno2,turno3,  libra,turno2,turno2]);